cplexFiles/lpModel/TSP_N4.lp
\ENCODING=ISO-8859-1
\Problem name: IloCplex

Minimize
 obj1: 1876.53776940407 x(0)#0 + 1070.58208466236 x(1)#1
       + 869.626356546304 x(2)#2 + 1209.76857290971 x(3)#3
       + 2408.37372515148 x(4)#4 + 1894.44345389352 x(5)#5
Subject To
 NodeDegree(0): x(0)#0 + x(1)#1 + x(2)#2  = 2
 NodeDegree(1): x(0)#0 + x(3)#3 + x(4)#4  = 2
 NodeDegree(2): x(1)#1 + x(3)#3 + x(5)#5  = 2
 NodeDegree(3): x(2)#2 + x(4)#4 + x(5)#5  = 2
Bounds
 0 <= x(0)#0 <= 1
 0 <= x(1)#1 <= 1
 0 <= x(2)#2 <= 1
 0 <= x(3)#3 <= 1
 0 <= x(4)#4 <= 1
 0 <= x(5)#5 <= 1
Binaries
 x(0)#0  x(1)#1  x(2)#2  x(3)#3  x(4)#4  x(5)#5 
End
