cplexFiles/solVal/TSP_N4.mps
<?xml version = "1.0" encoding="UTF-8" standalone="yes"?>
<CPLEXSolution version="1.2">
 <header
   problemName="IloCplex"
   solutionName="incumbent"
   solutionIndex="-1"
   objectiveValue="5558.3507392698502"
   solutionTypeValue="3"
   solutionTypeString="primal"
   solutionStatusValue="101"
   solutionStatusString="integer optimal solution"
   solutionMethodString="mip"
   primalFeasible="1"
   dualFeasible="1"
   MIPNodes="0"
   MIPIterations="4"
   writeLevel="1"/>
 <quality
   epInt="1.0000000000000001e-05"
   epRHS="9.9999999999999995e-07"
   maxIntInfeas="0"
   maxPrimalInfeas="0"
   maxX="1"
   maxSlack="0"/>
 <linearConstraints>
  <constraint name="NodeDegree(0)" index="0" slack="0"/>
  <constraint name="NodeDegree(1)" index="1" slack="0"/>
  <constraint name="NodeDegree(2)" index="2" slack="0"/>
  <constraint name="NodeDegree(3)" index="3" slack="0"/>
 </linearConstraints>
 <variables>
  <variable name="x[0]" index="0" value="0"/>
  <variable name="x[1]" index="1" value="1"/>
  <variable name="x[2]" index="2" value="1"/>
  <variable name="x[3]" index="3" value="1"/>
  <variable name="x[4]" index="4" value="1"/>
  <variable name="x[5]" index="5" value="-0"/>
 </variables>
 <objectiveValues>
  <objective index="0" name="obj1" value="5558.3507392698502"/>
 </objectiveValues>
</CPLEXSolution>
